(declare-const |phi_tmp___0:16:18:73:78| Int)
(declare-const |n':63:71:76| Int)
(declare-const |K:68:69:74| Int)
(declare-const |havoc:0| Int)
(declare-const |phi_tmp___0:13:15:17:72:77| Int)
(declare-const |i':62:70:75| Int)
(assert (and (<= (+ |havoc:0| -1000000) 0) (<= (+ (- |havoc:0|) -1000000) 0)
               (or (not (<= (- |K:68:69:74|) 0))
                     (= (+ |i':62:70:75| (- |K:68:69:74|)) 0))
               (or (not (<= (- |K:68:69:74|) 0))
                     (<= (+ |n':63:71:76| (- |K:68:69:74|)) 0))
               (or (not (<= (- |K:68:69:74|) 0)) (<= (- |n':63:71:76|) 0))
               (or (and (= |K:68:69:74| 0) (= (- |n':63:71:76|) 0)
                          (= (- |i':62:70:75|) 0))
                     (and (<= (+ (- |K:68:69:74|) 1) 0)
                            (<= (+ (* -2 |havoc:0|) 1) 0)
                            (<= (+ (- |havoc:0|) 1) 0)
                            (<= (+ |i':62:70:75| (* -2 |havoc:0|)) 0)
                            (<= (+ (mod (+ |i':62:70:75| -1) 2) -1) 0)
                            (<= (- (mod (+ |i':62:70:75| -1) 2)) 0)
                            (<= (+ (- (mod (+ |i':62:70:75| -1) 2))
                                     (- |n':63:71:76|) 1) 0)
                            (<= (+ (- |havoc:0|) 1) 0)
                            (<= (+ (- |i':62:70:75|) 1) 0)))
               (<= (- |K:68:69:74|) 0) (<= (- |n':63:71:76|) 0)
               (<= (- |i':62:70:75|) 0)
               (<= (+ (- |i':62:70:75|) (* 2 |havoc:0|)) 0)
               (or (and (<= (- |havoc:0|) 0)
                          (or (and (not (= (+ |n':63:71:76| (- |havoc:0|)) 0))
                                     (= (- |phi_tmp___0:13:15:17:72:77|) 0))
                                (and (= (+ |n':63:71:76| (- |havoc:0|)) 0)
                                       (= (+ (- |phi_tmp___0:13:15:17:72:77|)
                                               1) 0)))
                          (= (+ (- |phi_tmp___0:16:18:73:78|)
                                  |phi_tmp___0:13:15:17:72:77|) 0))
                     (and (< |havoc:0| 0)
                            (= (+ (- |phi_tmp___0:16:18:73:78|) 1) 0)))
               (= |phi_tmp___0:16:18:73:78| 0)))
(check-sat)
